/*********************************************
 * OPL 12.6.3.0 Data
 * Author: abbinzagr
 * Creation Date: 8 nov. 2017 at 10:40:55
 *********************************************/
n=3;
ub=3;
C=10;
s=[4,4,3];